results_rootrelaxation/bin012_060_031.srr.sol
solution status: optimal solution found
objective value:                               2.5625
_var732_                                      0.40625 	(obj:0)
_var735_                           0.0312499999999999 	(obj:0)
_var738_                                      0.46875 	(obj:0)
_var740_                                     0.203125 	(obj:0)
_var758_                                      0.15625 	(obj:1)
_var760_                                     0.140625 	(obj:1)
_var761_                           0.0781250000000001 	(obj:0)
_var769_                                     0.484375 	(obj:0)
_var791_                                      0.15625 	(obj:1)
_var795_                                      0.34375 	(obj:0)
_var801_                                       0.6875 	(obj:0)
_var805_                           0.0781249999999996 	(obj:0)
_var810_                                     0.265625 	(obj:0)
_var819_                                      0.59375 	(obj:0)
_var822_                                      0.21875 	(obj:0)
_var825_                                      0.53125 	(obj:0)
_var829_                           0.0468749999999997 	(obj:2)
_var832_                           0.0156249999999999 	(obj:1)
_var833_                                       0.3125 	(obj:0)
_var843_                                       0.3125 	(obj:0)
_var850_                                     0.203125 	(obj:1)
_var851_                           0.0468750000000002 	(obj:0)
_var853_                                      0.34375 	(obj:0)
_var857_                           0.0624999999999995 	(obj:1)
_var858_                                      0.34375 	(obj:0)
_var860_                                        0.125 	(obj:0)
_var864_                                     0.203125 	(obj:1)
_var873_                                     0.328125 	(obj:1)
_var874_                                         0.25 	(obj:0)
_var878_                                      0.28125 	(obj:1)
_var885_                                      0.03125 	(obj:0)
_var888_                           0.0781249999999998 	(obj:0)
_var890_                                        0.125 	(obj:1)
_var891_                           0.0312499999999999 	(obj:0)
_var898_                                     0.390625 	(obj:0)
_var899_                           0.0937499999999999 	(obj:0)
_var902_                           0.0468750000000002 	(obj:0)
_var903_                                     0.078125 	(obj:1)
_var904_                           0.0156249999999999 	(obj:0)
_var907_                           0.0468750000000001 	(obj:0)
_var910_                                      0.28125 	(obj:0)
_var912_                           0.0468749999999998 	(obj:1)
_var913_                                     0.203125 	(obj:0)
_var915_                                         0.25 	(obj:1)
_var916_                                     0.296875 	(obj:1)
_var925_                                      0.28125 	(obj:0)
_var928_                           0.0781249999999999 	(obj:0)
_var930_                           0.0156250000000001 	(obj:1)
_var931_                           0.0156249999999998 	(obj:0)
_var934_                           0.0468749999999997 	(obj:0)
_var935_                                     0.203125 	(obj:0)
_var937_                                      0.21875 	(obj:0)
_var938_                           0.0468750000000002 	(obj:0)
_var942_                           0.0624999999999999 	(obj:1)
_var943_                                      0.15625 	(obj:0)
_var946_                           0.0625000000000003 	(obj:0)
_var949_                           0.0156250000000001 	(obj:1)
_var952_                           0.0468749999999999 	(obj:0)
_var953_                           0.0156250000000003 	(obj:2)
